unknown
(model
; cardinality of BoundSet is 2
(declare-sort BoundSet 0)
; rep: @uc_BoundSet_0
; rep: @uc_BoundSet_1
; cardinality of UnboundSet is 1
(declare-sort UnboundSet 0)
; rep: @uc_UnboundSet_0
(define-fun b () UnboundSet @uc_UnboundSet_0)
(define-fun IsInGlasses ((BOUND_VARIABLE_418 BoundSet)) Bool true)
(define-fun HasBlueGrayScarf ((BOUND_VARIABLE_423 UnboundSet)) Bool true)
(define-fun Smiles ((BOUND_VARIABLE_418 BoundSet)) Bool true)
(define-fun IsSmiling ((BOUND_VARIABLE_418 BoundSet)) Bool false)
)
